20
25
7
98
5
26
15
38
34
68
0 11
1 10
1 19
3 6
3 8
3 16
4 6
4 8
5 19
6 7
7 14
8 13
8 14
9 11
9 14
10 11
10 12
11 13
12 14
12 17
12 19
14 19
15 19
16 17
18 19
17 7 10
1 13 15
5 14 0
4 2 18
9 8 12
6 3 16
11 19
